Version identifier: 20.1.0.0 | 2020-11-10 | 9bedb6d68
Tried aggregator 2 times.
MIP Presolve eliminated 1319 rows and 731 columns.
MIP Presolve modified 3188 coefficients.
Aggregator did 142 substitutions.
Reduced MIP has 1888 rows, 1482 columns, and 6232 nonzeros.
Reduced MIP has 316 binaries, 1166 generals, 0 SOSs, and 0 indicators.
Presolve time = 0.02 sec. (7.39 ticks)
Found incumbent of value 3623.000000 after 0.04 sec. (15.09 ticks)
Probing fixed 40 vars, tightened 326 bounds.
Probing time = 0.00 sec. (1.34 ticks)
Tried aggregator 2 times.
Detecting symmetries...
MIP Presolve eliminated 822 rows and 44 columns.
MIP Presolve modified 127 coefficients.
Aggregator did 2 substitutions.
Reduced MIP has 1064 rows, 1436 columns, and 3558 nonzeros.
Reduced MIP has 398 binaries, 1038 generals, 0 SOSs, and 0 indicators.
Presolve time = 0.01 sec. (4.82 ticks)
Probing time = 0.00 sec. (0.36 ticks)
Clique table members: 125.
MIP emphasis: balance optimality and feasibility.
MIP search method: dynamic search.
Parallel mode: deterministic, using up to 24 threads.
Root relaxation solution time = 0.01 sec. (3.25 ticks)

        Nodes                                         Cuts/
   Node  Left     Objective  IInf  Best Integer    Best Bound    ItCnt     Gap

*     0+    0                         3623.0000        0.0000           100.00%
      0     0        0.0000    48     3623.0000        0.0000      347  100.00%
      0     0        0.0000    38     3623.0000     Cuts: 121      429  100.00%
      0     0        0.4500   102     3623.0000      Cuts: 96      556   99.99%
*     0+    0                           29.0000        0.4500            98.45%
      0     0        0.8125    93       29.0000      Cuts: 47      624   97.20%
      0     0        1.1220   148       29.0000      Cuts: 58      667   96.13%
      0     0        1.2857   108       29.0000      Cuts: 38      707   95.57%
      0     0        1.2857   105       29.0000      Cuts: 37      734   95.57%
      0     0        1.4250    66       29.0000      Cuts: 18      757   95.09%
      0     0        1.8000    73       29.0000      Cuts: 38      787   93.79%
*     0+    0                           15.0000        1.8000            88.00%
      0     0        1.8571   103       15.0000      Cuts: 67      846   13.33%
      0     2        1.8571    57       15.0000       13.0000      846   13.33%
Elapsed time = 1.24 sec. (134.24 ticks, tree = 0.02 MB, solutions = 3)
*   114    19      integral     0       14.0000       13.0000     8880    7.14%
*   182     7      integral     0       13.0000       13.0000    13281    0.00%

Cover cuts applied:  2
Implied bound cuts applied:  105
Flow cuts applied:  10
Mixed integer rounding cuts applied:  20
Zero-half cuts applied:  90
Lift and project cuts applied:  8
Gomory fractional cuts applied:  18

Root node processing (before b&c):
  Real time             =    1.00 sec. (133.90 ticks)
Parallel b&c, 24 threads:
  Real time             =    1.59 sec. (58.25 ticks)
  Sync time (average)   =    1.29 sec.
  Wait time (average)   =    0.00 sec.
                          ------------
Total (root+branch&cut) =    2.59 sec. (192.15 ticks)

Solution status = Optimal
Solution LB = 13
Solution UB = 13
Runtime = 2.59897 seconds
	Command being timed: "/home/min/git_repos/CS598MEBProject/CNT-ILP/build/cnt -s 2 ./output/k8_n20/simC_c1_k8_n20_u3_s1_del02.input-right.cnp"
	User time (seconds): 37.78
	System time (seconds): 0.17
	Percent of CPU this job got: 1446%
	Elapsed (wall clock) time (h:mm:ss or m:ss): 0:02.62
	Average shared text size (kbytes): 0
	Average unshared data size (kbytes): 0
	Average stack size (kbytes): 0
	Average total size (kbytes): 0
	Maximum resident set size (kbytes): 121668
	Average resident set size (kbytes): 0
	Major (requiring I/O) page faults: 0
	Minor (reclaiming a frame) page faults: 44274
	Voluntary context switches: 12563
	Involuntary context switches: 5159
	Swaps: 0
	File system inputs: 0
	File system outputs: 16
	Socket messages sent: 0
	Socket messages received: 0
	Signals delivered: 0
	Page size (bytes): 4096
	Exit status: 0
